 ! --------------------------------------------------- CP Optimizer 22.1.1.0 --
 ! Satisfiability problem - 26610 variables, 267666 constraints
 ! Presolve      : 16200 extractables eliminated
 ! TimeLimit            = 3600
 ! Workers              = 1
 ! Initial process time : 2.46s (2.46s extraction + 0.01s propagation)
 !  . Log search space  : 272237.6 (before), 272237.6 (after)
 !  . Memory usage      : 190.5 MB (before), 190.5 MB (after)
 ! Using sequential search.
 ! ----------------------------------------------------------------------------
 !               Branches  Non-fixed            Branch decision
                     1024      25279        F          presenceOf(copy_trips:19_0)
                     2000      17932                   presenceOf(copy_lane_parking:0_48)
                     3000      14536                   presenceOf(copy_lane_parking:1_137)
                     4000      16944        F         !presenceOf(start_parking:20)
                     5000      13489                   presenceOf(copy_lane_parking:4_93)
                     6000      16941        F          presenceOf(copy_bus_parking:21_269)
                     7000       9449                   presenceOf(copy_lane_parking:0_8)
                     8000      17029        F          presenceOf(copy_trips:13_269)
                     9000      16950                   presenceOf(copy_lane_parking:3_265)
                    10000      17011        F         !presenceOf(copy_bus_parking:11_266)
                    11000      17008                  !presenceOf(copy_bus_parking:24_266)
                    12000      17011        F         !presenceOf(copy_bus_parking:11_266)
                    13000      17011                  !presenceOf(copy_trips:9_45)
                    14000      18485                   presenceOf(copy_lane_parking:4_175)
                    15000       9459        F          presenceOf(copy_trips:2_266)
                    16000      16950                   presenceOf(copy_lane_parking:3_140)
                    17000      11709        F          presenceOf(copy_trips:22_22)
                    18000      14742                   presenceOf(copy_trips:11_8)
                    19000      14730        F          presenceOf(copy_trips:17_40)
                    20000      16944                   presenceOf(copy_lane_parking:3_172)
 ! Time = 17.06s, Average fail depth = 344, Memory usage = 592.8 MB
 !               Branches  Non-fixed            Branch decision
                    21000      11400                   presenceOf(copy_lane_parking:2_125)
                    22000       9470        F          presenceOf(copy_trips:11_268)
                    23000       9464                   presenceOf(copy_lane_parking:0_80)
                    24000       9467                  !presenceOf(copy_bus_parking:25_268)
                    25000       9361                   presenceOf(copy_lane_parking:1_232)
                    26000      11663                  !presenceOf(copy_trips:7_40)
                    27000       9461        F          presenceOf(copy_trips:10_268)
                    28000       9461                  !presenceOf(copy_trips:6_268)
                    29000       9461                  !presenceOf(copy_trips:17_268)
                    30000       9461                   presenceOf(copy_bus_parking:26_253)
                    31000       9461                  !presenceOf(copy_trips:8_268)
                    32000       9458                  !presenceOf(copy_trips:29_268)
                    33000       9458        F         !presenceOf(copy_trips:21_268)
                    34000       9458                  !presenceOf(copy_trips:27_268)
                    35000       9461                   presenceOf(copy_lane_parking:4_103)
                    36000      18451                   presenceOf(copy_lane_parking:4_265)
                    37000      11885                   presenceOf(copy_lane_parking:1_211)
                    38000      18605                  !presenceOf(copy_bus_parking:9_24)
                    39000      18605                  !presenceOf(copy_trips:25_0)
                    40000      18605        F          presenceOf(copy_trips:2_16)
 ! Time = 29.75s, Average fail depth = 380, Memory usage = 592.9 MB
 !               Branches  Non-fixed            Branch decision
                    41000      18605        F          presenceOf(copy_bus_parking:0_19)
                    42000      18544        F          presenceOf(copy_bus_parking:8_25)
                    43000      18544                  !presenceOf(copy_trips:4_24)
                    44000      18563        F          presenceOf(copy_trips:12_0)
                    45000      18547                  !presenceOf(copy_trips:17_24)
                    46000      18550                  !presenceOf(copy_trips:3_24)
                    47000      18563        F          presenceOf(copy_trips:17_0)
                    48000      18547                  !presenceOf(copy_trips:26_20)
                    49000      18563                  !presenceOf(copy_trips:28_24)
                    50000      18566        F          presenceOf(copy_bus_parking:1_25)
                    51000      18840                  !presenceOf(copy_trips:7_24)
                    52000      18840        F          presenceOf(copy_bus_parking:10_25)
                    53000      18544        F          presenceOf(copy_trips:0_0)
                    54000      18544                  !presenceOf(copy_bus_parking:6_0)
                    55000      19087                   presenceOf(copy_trips:22_252)
                    56000      16941                   presenceOf(copy_lane_parking:5_16)
                    57000      19020                  !presenceOf(copy_bus_parking:28_19)
                    58000      16965                   presenceOf(copy_lane_parking:1_15)
                    59000      18728        F          presenceOf(copy_bus_parking:20_10)
                    60000      16941        F          presenceOf(copy_bus_parking:3_269)
 ! Time = 46.21s, Average fail depth = 355, Memory usage = 593.6 MB
 !               Branches  Non-fixed            Branch decision
                    61000      16938                   presenceOf(copy_lane_parking:1_184)
                    62000      21947        F          presenceOf(copy_trips:1_1)
                    63000       9464                  !presenceOf(copy_trips:14_268)
                    64000       9464        F          presenceOf(copy_trips:25_268)
                    65000       9464        F          presenceOf(copy_trips:1_268)
                    66000       9464        F          presenceOf(copy_trips:17_55)
                    67000      10807                   presenceOf(copy_lane_parking:3_119)
                    68000      11305                   presenceOf(copy_lane_parking:3_231)
                    69000      12756                  !presenceOf(copy_bus_parking:1_17)
                    70000      12756                  !presenceOf(copy_bus_parking:1_17)
                    71000      12756                  !presenceOf(copy_bus_parking:14_17)
                    72000      12531        F         !presenceOf(copy_bus_parking:14_17)
                    73000      12531        F          presenceOf(copy_bus_parking:19_51)
                    74000      12531                  !presenceOf(copy_bus_parking:12_17)
                    75000      12756                   presenceOf(copy_trips:10_7)
                    76000      12531                  !presenceOf(copy_bus_parking:26_17)
                    77000      12717                  !presenceOf(copy_bus_parking:17_17)
                    78000      12717                  !presenceOf(copy_bus_parking:7_17)
                    79000      12717                  !presenceOf(copy_bus_parking:7_17)
                    80000      12756                  !presenceOf(copy_bus_parking:25_17)
 ! Time = 56.71s, Average fail depth = 365, Memory usage = 607.5 MB
 !               Branches  Non-fixed            Branch decision
                    81000      12531                   presenceOf(copy_trips:20_22)
                    82000      11809                   presenceOf(copy_lane_parking:3_244)
                    83000      23830                   presenceOf(copy_lane_parking:3_98)
                    84000      20799            on charge:7_33
                    85000      17208                  !presenceOf(copy_trips:1_195)
                    86000      11973        F          presenceOf(copy_trips:9_40)
                    87000      11973        F          presenceOf(copy_trips:28_27)
                    88000      10798                  !presenceOf(copy_trips:10_126)
                    89000       9293        F         !presenceOf(copy_trips:16_186)
                    90000       9293                   presenceOf(copy_lane_parking:0_181)
                    91000      11742        F          presenceOf(copy_trips:7_40)
                    92000      17035                  !presenceOf(copy_bus_parking:25_269)
                    93000      15378                  !presenceOf(copy_bus_parking:27_74)
                    94000      15373                   presenceOf(copy_lane_parking:3_259)
                    95000      20786                   presenceOf(copy_lane_parking:4_87)
                    96000      16944        F          presenceOf(copy_trips:15_264)
                    97000      16947                  !presenceOf(copy_trips:10_266)
                    98000      16947        F          presenceOf(copy_trips:15_264)
                    99000       9456                  !presenceOf(copy_trips:9_182)
                     100k       9453                   presenceOf(copy_trips:8_175)
 ! Time = 71.65s, Average fail depth = 360, Memory usage = 609.4 MB
 !               Branches  Non-fixed            Branch decision
                     101k      11661        F          presenceOf(copy_trips:14_76)
                     102k      18565                  !presenceOf(copy_trips:25_79)
                     103k      18565        F          presenceOf(copy_trips:23_79)
                     104k      18565                   presenceOf(copy_lane_parking:3_197)
                     105k      17121                  !presenceOf(copy_bus_parking:23_264)
                     106k      16947                   presenceOf(copy_lane_parking:5_19)
                     107k       9368        F          presenceOf(copy_bus_parking:17_268)
                     108k       9365                  !presenceOf(copy_trips:24_28)
                     109k      11561        F          presenceOf(copy_bus_parking:10_17)
                     110k      18306                  !presenceOf(copy_trips:10_48)
                     111k      18989        F          presenceOf(copy_trips:27_27)
                     112k      18989                  !presenceOf(copy_trips:0_48)
                     113k      18989        F          presenceOf(copy_trips:22_33)
                     114k      16953                  !presenceOf(copy_trips:5_269)
                     115k       9290        F          presenceOf(copy_trips:7_182)
                     116k       9290        F          presenceOf(copy_trips:7_182)
                     117k       9290                  !presenceOf(copy_trips:8_184)
                     118k       9290        F          presenceOf(copy_trips:17_184)
                     119k       9290                  !presenceOf(copy_trips:19_184)
                     120k       9290        F          presenceOf(copy_trips:7_182)
 ! Time = 84.39s, Average fail depth = 358, Memory usage = 609.4 MB
 !               Branches  Non-fixed            Branch decision
                     121k       9290                  !presenceOf(copy_trips:19_184)
                     122k       9290                   presenceOf(copy_trips:4_184)
                     123k       9290        F         !presenceOf(copy_trips:7_182)
                     124k       9290                   presenceOf(copy_trips:10_184)
                     125k       9290        F          presenceOf(copy_trips:7_182)
                     126k       9290        F         !presenceOf(copy_trips:7_182)
                     127k       9290                  !presenceOf(copy_bus_parking:14_186)
                     128k       9290        F          presenceOf(copy_trips:18_195)
                     129k      16947        F          presenceOf(copy_trips:7_10)
                     130k      18562                  !presenceOf(copy_bus_parking:21_0)
                     131k      18827                  !presenceOf(copy_trips:20_69)
                     132k      16944        F          presenceOf(copy_trips:9_266)
                     133k      15992        F          presenceOf(copy_bus_parking:1_2)
                     134k      16098        F          presenceOf(copy_trips:17_25)
                     135k      16926                  !presenceOf(copy_bus_parking:3_266)
                     136k      16923                  !presenceOf(copy_bus_parking:8_266)
                     137k      16923                  !presenceOf(copy_bus_parking:7_266)
                     138k      16917                   presenceOf(copy_lane_parking:5_50)
                     139k       9464                  !presenceOf(copy_trips:23_268)
                     140k       9464                  !presenceOf(copy_trips:5_268)
 ! Time = 93.93s, Average fail depth = 363, Memory usage = 609.4 MB
 !               Branches  Non-fixed            Branch decision
                     141k       9464                  !presenceOf(copy_trips:22_268)
                     142k       9267                  !presenceOf(copy_bus_parking:25_268)
                     143k       9267        F          presenceOf(copy_bus_parking:14_268)
                     144k       9367                  !presenceOf(copy_trips:15_63)
                     145k      18404        F          presenceOf(copy_bus_parking:14_16)
                     146k      21193                   presenceOf(copy_lane_parking:0_51)
                     147k      18655        F          presenceOf(copy_trips:24_54)
                     148k      18724        F          presenceOf(copy_trips:17_75)
                     149k      18724                  !presenceOf(copy_trips:4_75)
                     150k      18724        F          presenceOf(copy_trips:17_75)
                     151k       9289        F          presenceOf(copy_bus_parking:28_182)
                     152k       9289        F          presenceOf(copy_bus_parking:28_182)
                     153k       9289                  !presenceOf(copy_bus_parking:2_184)
                     154k       9289                   presenceOf(copy_lane_parking:2_56)
                     155k      14886                   presenceOf(copy_lane_parking:5_44)
                     156k      11101                  !presenceOf(copy_trips:24_103)
                     157k      10169        F          presenceOf(copy_trips:0_113)
                     158k      10170                  !presenceOf(copy_trips:29_113)
                     159k      10169                   presenceOf(copy_lane_parking:3_151)
                     160k      10169                   presenceOf(copy_trips:24_113)
 ! Time = 104.30s, Average fail depth = 363, Memory usage = 609.4 MB
 !               Branches  Non-fixed            Branch decision
                     161k      10169                  !presenceOf(copy_trips:12_104)
                     162k      10169                  !presenceOf(copy_trips:19_104)
                     163k       9832                   presenceOf(copy_lane_parking:0_103)
                     164k         22            on charge:5_194
 *                   164k  105.35s                   -
 ! ----------------------------------------------------------------------------
 ! Search completed, 1 solution found.
 ! ----------------------------------------------------------------------------
 ! Number of branches     : 164062
 ! Number of fails        : 63856
 ! Total memory usage     : 671.6 MB (655.3 MB CP Optimizer + 16.3 MB Concert)
 ! Time spent in solve    : 105.36s (102.91s engine + 2.46s extraction)
 ! Search speed (br. / s) : 1594.2
 ! ----------------------------------------------------------------------------
